\* Problem: Unknown *\

Maximize
 obj: + xp_0_0 + xp_0_1 + xp_0_2 + xp_0_3 + xp_0_4 + xp_0_5 + xp_0_6
 + xp_1_0 + xp_1_1 + xp_2_0 + xp_2_1 + xp_2_2 + xp_2_3 + xp_3_0 + xp_3_1
 + xp_3_2 + xp_3_3 + xp_4_0 + xp_5_0 + xp_5_1 + xp_6_0 + xp_6_1 + xp_6_2
 + xp_7_0 + xp_8_0 + xp_9_0 + xp_10_0 + xp_11_0 + xp_11_1 + xp_11_2
 + xp_11_3 + xp_12_0 + xp_13_0 + xp_13_1 + xp_14_0 + xp_14_1 + xp_15_0
 + xp_16_0 + xp_17_0 + xp_17_1 + xp_17_2 + xp_17_3 + xp_18_0 + xp_18_1
 + xp_18_2 + xp_18_3 + xp_19_0 + xp_19_1 + xp_19_2 + xp_19_3 + xp_20_0
 + xp_20_1 + xp_20_2 + xp_20_3 + xp_21_0 + xp_21_1 + xp_21_2 + xp_21_3
 + xp_22_0 + xp_22_1 + xp_22_2 + xp_22_3 + xp_23_0 + xp_23_1 + xp_23_2
 + xp_23_3

Subject To
 r_1: 0 xp_0_0 <= 30
 r_2: + xp_6_2 + xp_5_1 + xp_2_2 <= 30
 r_3: + xp_21_3 + xp_18_2 <= 30
 r_4: + xp_23_3 + xp_18_3 + xp_15_0 <= 30
 r_5: + xp_18_0 <= 28.8106343283582
 r_6: + xp_18_1 <= 30
 r_7: + xp_20_2 <= 30
 r_8: + xp_22_1 + xp_11_3 + xp_3_3 + xp_3_2 + xp_2_1 <= 30
 r_9: + xp_23_2 + xp_17_2 + xp_11_2 + xp_3_1 <= 30
 r_10: + xp_3_0 <= 30
 r_11: + xp_18_1 + xp_11_1 <= 28.8106343283582
 r_12: + xp_11_0 <= 30
 r_13: 0 xp_0_0 <= 30
 r_14: + xp_21_1 + xp_19_2 + xp_14_0 + xp_0_4 + xp_0_1 <= 30
 r_15: + xp_21_0 + xp_19_3 <= 30
 r_16: + xp_21_2 + xp_19_1 + xp_0_5 + xp_0_2 <= 30
 r_17: + xp_0_0 <= 28.8106343283582
 r_18: + xp_21_3 + xp_4_0 <= 30
 r_19: + xp_19_0 <= 30
 r_20: + xp_14_1 + xp_0_6 + xp_0_3 <= 30
 r_21: + xp_20_1 <= 30
 r_22: + xp_21_1 <= 30
 r_23: + xp_22_3 + xp_22_1 + xp_3_2 <= 30
 r_24: + xp_6_2 + xp_6_1 + xp_3_3 + xp_0_6 + xp_0_4 <= 30
 r_25: 0 xp_0_0 <= 30
 r_26: + xp_0_3 + xp_0_1 <= 28.8106343283582
 r_27: + xp_11_3 <= 30
 r_28: + xp_19_2 <= 30
 r_29: + xp_20_3 <= 30
 r_30: + xp_2_0 <= 30
 r_31: + xp_23_2 + xp_18_2 + xp_17_2 + xp_3_1 + xp_2_3 <= 30
 r_32: 0 xp_0_0 <= 30
 r_33: + xp_11_2 + xp_2_2 <= 30
 r_34: + xp_19_3 + xp_2_1 <= 30
 r_35: 0 xp_0_0 <= 30
 r_36: + xp_9_0 <= 30
 r_37: + xp_21_2 + xp_13_1 <= 30
 r_38: + xp_1_1 <= 30
 r_39: + xp_19_1 + xp_17_3 + xp_3_2 + xp_0_5 <= 30
 r_40: + xp_0_2 <= 28.8106343283582
 r_41: + xp_12_0 + xp_2_3 <= 30
 r_42: + xp_21_2 <= 30
 r_43: + xp_16_0 <= 30
 r_44: + xp_23_2 + xp_23_1 <= 30
 r_45: + xp_17_2 + xp_3_3 + xp_3_1 <= 30
 r_46: + xp_18_2 + xp_0_6 + xp_0_4 <= 28.8106343283582
 r_47: + xp_22_2 + xp_13_1 <= 30
 r_48: + xp_13_0 <= 30
 r_49: + xp_17_1 <= 30
 r_50: 0 xp_0_0 <= 28.8106343283582
 r_51: + xp_1_1 <= 30
 r_52: + xp_8_0 <= 30
 r_53: + xp_23_3 + xp_1_0 <= 30
 r_54: + xp_18_3 + xp_0_5 <= 28.8106343283582
 r_55: 0 xp_0_0 <= 30
 r_56: + xp_19_1 <= 30
 r_57: 0 xp_0_0 <= 28.8106343283582
 r_58: + xp_22_3 + xp_6_1 + xp_5_0 <= 28.8106343283582
 r_59: + xp_22_0 + xp_17_3 <= 28.8106343283582
 r_60: + xp_23_1 + xp_6_0 <= 28.8106343283582
 r_61: + xp_23_0 + xp_22_2 + xp_17_1 <= 28.8106343283582
 r_62: + xp_17_0 <= 28.8106343283582
 r_63: + xp_23_3 + xp_11_1 + xp_6_2 + xp_5_1 <= 28.8106343283582
 r_64: + xp_23_2 + xp_22_1 + xp_17_2 <= 28.8106343283582
 r_65: + xp_20_1 + xp_14_1 + xp_0_6 + xp_0_3 <= 30
 r_66: + xp_20_3 + xp_7_0 <= 30
 r_67: + xp_20_2 + xp_10_0 <= 30
 r_68: + xp_20_0 <= 30

Bounds
 0 <= xp_0_0 <= 28.6885253856493
 0 <= xp_0_1 <= 5.94261479709435
 0 <= xp_0_2 <= 15.0409790325163
 0 <= xp_0_3 <= 9.09836423542199
 0 <= xp_0_4 <= 1.39343267938335
 0 <= xp_0_5 <= 1.39343267938335
 0 <= xp_0_6 <= 1.39343267938335
 0 <= xp_1_0 <= 18.9480713894051
 0 <= xp_1_1 <= 16.2978088712691
 0 <= xp_2_0 <= 23.9890746842261
 0 <= xp_2_1 <= 4.549182117711
 0 <= xp_2_2 <= 4.97265638268448
 0 <= xp_2_3 <= 1.24316409567112
 0 <= xp_3_0 <= 24.4125671459281
 0 <= xp_3_1 <= 6.21583867508407
 0 <= xp_3_2 <= 0.833328278686536
 0 <= xp_3_3 <= 0.833328278686536
 0 <= xp_4_0 <= 26.2294922870134
 0 <= xp_5_0 <= 17.4863281913422
 0 <= xp_5_1 <= 8.74316409567112
 0 <= xp_6_0 <= 11.803271529156
 0 <= xp_6_1 <= 3.934423843052
 0 <= xp_6_2 <= 7.86884768610401
 0 <= xp_7_0 <= 22.622937097549
 0 <= xp_8_0 <= 20.3278565224354
 0 <= xp_9_0 <= 18.8524475812908
 0 <= xp_10_0 <= 18.8524475812908
 0 <= xp_11_0 <= 27.295092706266
 0 <= xp_11_1 <= 4.549182117711
 0 <= xp_11_2 <= 9.09836423542199
 0 <= xp_11_3 <= 13.647546353133
 0 <= xp_12_0 <= 17.704907293734
 0 <= xp_13_0 <= 14.3442535944604
 0 <= xp_13_1 <= 2.86885071889209
 0 <= xp_14_0 <= 8.19671633969167
 0 <= xp_14_1 <= 8.19671633969167
 0 <= xp_15_0 <= 16.2294983525895
 0 <= xp_16_0 <= 15.5737610454142
 0 <= xp_17_0 <= 28.8387939693616
 0 <= xp_17_1 <= 3.04644169040329
 0 <= xp_17_2 <= 3.04644169040329
 0 <= xp_17_3 <= 10.6420654985176
 0 <= xp_18_0 <= 21.8032654635799
 0 <= xp_18_1 <= 14.5355103090532
 0 <= xp_18_2 <= 4.549182117711
 0 <= xp_18_3 <= 2.71857303681562
 0 <= xp_19_0 <= 28.0191223353924
 0 <= xp_19_1 <= 2.6366058734187
 0 <= xp_19_2 <= 2.6366058734187
 0 <= xp_19_3 <= 9.82239386454841
 0 <= xp_20_0 <= 27.7458984574027
 0 <= xp_20_1 <= 4.99998786884769
 0 <= xp_20_2 <= 7.04917605213484
 0 <= xp_20_3 <= 2.49999393442384
 0 <= xp_21_0 <= 18.0464416904033
 0 <= xp_21_1 <= 11.2978119040571
 0 <= xp_21_2 <= 8.94807745498129
 0 <= xp_21_3 <= 2.19944766863515
 0 <= xp_22_0 <= 15.5737701437784
 0 <= xp_22_1 <= 6.47540590835642
 0 <= xp_22_2 <= 10.3278534896473
 0 <= xp_22_3 <= 6.47540590835642
 0 <= xp_23_0 <= 14.1803010709381
 0 <= xp_23_1 <= 18.196728470844
 0 <= xp_23_2 <= 4.549182117711
 0 <= xp_23_3 <= 1.92622379064543

End
